
******************************************************************************
This program contains Ipopt, a library for large-scale nonlinear optimization.
 Ipopt is released as open source code under the Eclipse Public License (EPL).
         For more information visit http://projects.coin-or.org/Ipopt
******************************************************************************

This is Ipopt version 3.12.6, running with linear solver ma57.

Number of nonzeros in equality constraint Jacobian...:      195
Number of nonzeros in inequality constraint Jacobian.:        0
Number of nonzeros in Lagrangian Hessian.............:       89

Total number of variables............................:       31
                     variables with only lower bounds:        0
                variables with lower and upper bounds:        0
                     variables with only upper bounds:        0
Total number of equality constraints.................:       31
Total number of inequality constraints...............:        0
        inequality constraints with only lower bounds:        0
   inequality constraints with lower and upper bounds:        0
        inequality constraints with only upper bounds:        0

iter    objective    inf_pr   inf_du lg(mu)  ||d||  lg(rg) alpha_du alpha_pr  ls
   0  0.0000000e+00 4.88e+01 0.00e+00  -1.0 0.00e+00    -  0.00e+00 0.00e+00   0
Reallocating memory for MA57: lfact (3052)
   1  0.0000000e+00 6.28e+00 0.00e+00  -1.0 1.04e+01    -  1.00e+00 1.00e+00h  1
   2  0.0000000e+00 1.53e-01 0.00e+00  -1.0 2.62e+00    -  1.00e+00 1.00e+00h  1
   3  0.0000000e+00 9.55e-05 0.00e+00  -2.5 1.07e-01    -  1.00e+00 1.00e+00h  1
   4  0.0000000e+00 3.69e-11 0.00e+00  -5.7 1.62e-04    -  1.00e+00 1.00e+00h  1

Number of Iterations....: 4

                                   (scaled)                 (unscaled)
Objective...............:   0.0000000000000000e+00    0.0000000000000000e+00
Dual infeasibility......:   0.0000000000000000e+00    0.0000000000000000e+00
Constraint violation....:   1.0674296703176882e-11    3.6933925002813344e-11
Complementarity.........:   0.0000000000000000e+00    0.0000000000000000e+00
Overall NLP error.......:   1.0674296703176882e-11    3.6933925002813344e-11


Number of objective function evaluations             = 5
Number of objective gradient evaluations             = 5
Number of equality constraint evaluations            = 5
Number of inequality constraint evaluations          = 0
Number of equality constraint Jacobian evaluations   = 5
Number of inequality constraint Jacobian evaluations = 0
Number of Lagrangian Hessian evaluations             = 4
Total CPU secs in IPOPT (w/o function evaluations)   =      0.003
Total CPU secs in NLP function evaluations           =      0.000

EXIT: Optimal Solution Found.

************************ CUTEst statistics ************************


 Package used            :  IPOPT
 Problem                 :  METHANL8  
 # variables             =              31
 # constraints           =              31
 # objective functions   =        0.1100000E+02
 # objective gradients   =        0.6000000E+01
 # objective Hessians    =        0.5000000E+01
 # Hessian-vector prdct  =        0.0000000E+00
 # constraints functions =        0.1200000E+02
 # constraints gradients =        0.7000000E+01
 # constraints Hessians  =        0.5000000E+01
 Exit code               =               0
 Final f                 =   0.0000000E+00
 Set up time             =            0.00 seconds
 Solve time              =            0.01 seconds


******************************************************************

System Time =       0.0040000002 s.
